66
150
119	1
118	2
117	1
114	2
112	2
110	1
109	2
107	1
105	1
104	1
103	2
102	1
101	2
100	2
99	2
97	1
96	1
95	3
92	2
91	5
90	1
88	1
86	1
84	2
81	1
80	4
79	1
78	2
72	1
71	1
70	1
69	2
68	3
67	1
66	1
65	1
64	1
63	1
62	1
61	1
59	1
58	1
56	1
53	1
51	1
50	1
47	2
46	2
44	2
42	1
41	1
40	1
39	1
38	1
36	2
34	2
33	1
32	2
30	1
29	3
27	1
25	1
24	2
21	2
19	1
17	2
